
  15    0


   0   8 2 3 4 5 6 12 13 14 
   2   3 11 8 7 
   6   1 10 
   9   1 9 
   8   1 8 
   2   1 7 
   1   1 15
   5   1 15
   2   1 15
   9   1 15
   2   1 15
   3   1 15
  10   1 15
  10   1 15
   0   0 
